################### Inputs ########################
# Path to LAMMPS data file (*.lammps)
lammps_data     ../data/90m10c_01.lammps

# Path to LAMMPS trajectory (dump) file (*.lammpstrj)
lammps_dump     ../data/90m10c_01.lammpstrj

################ System Settings ###################
# System phase (crystal, amorphous(default))
phase 	amorphous

# Input file atom types definition
atom_type 	1	hc
atom_type	2	c3
atom_type	3	c1
atom_type	4	c2

# Bead types definition
bead_type	A	c1 c2
bead_weights	A	0.5 0.5
bead_type	B	c3
bead_weights	B	1.0

# Symmetrical beads in the mapping matrix
#symmetrical_beads   1  2

################### Outputs ########################
# Outputs tag ("CG" is default)
tag     90m10c_6beads

# Data file atom_style (molecular, full(default)) 
atom_style 	molecular

