################### Inputs ########################
# Path to LAMMPS data file (*.lammps)
lammps_data     ../data/alpha_a1b1c2.lammps

# Path to LAMMPS trajectory (dump) file (*.lammpstrj)
lammps_dump     ../data/alpha_a1b1c2.lammpstrj

################ System Settings ###################
# System phase (crystal, amorphous(default))
phase crystal

# Simulation box periodicity of the crystal phase (finite/infinite)
crystal_periodicity infinite

# Input file atom types definition
atom_type 	1	c1
atom_type	2	c2
atom_type	3	c3
atom_type	4	hc

# Bead types definition
bead_type	A	c1 c2
bead_weights	A	0.5 0.5
bead_type	B	c3
bead_weights	B	1.0

# Symmetrical beads in the mapping matrix
#symmetrical_beads   1  2

################### Outputs ########################
# Outputs tag ("CG" is default)
tag     3beads_alpha_a1b1c2

# Data file atom_style (molecular, full(default)) 
atom_style 	molecular

