################### Inputs ########################
# Path to LAMMPS data file (*.lammps)
lammps_data     ../data/alpha_a1b1c2.lammps

# Path to LAMMPS trajectory (dump) file (*.lammpstrj)
lammps_dump     ../data/alpha_a1b1c2.lammpstrj

################ Mapping matrix #####################
# Path to mapping matrix file (*.txt)
mapping_matrix  ../data/mapping_matrix_1.txt

# Symmetrical beads in the mapping
symmetrical_beads	1  2  3

################# System Settings ##################
# System phase (crystal , amorphous(default))
phase   crystal

# Simulation box periodicity of the crystal phase (finite/infinite)
crystal_periodicity infinite

# Atom types (what are atom types in the data file)
# crystal   : C 1 2 3 -&- H 4
type    C   1 2 3
type    H   4

# SMILE block pattern
smiles_block (C)CC(C)CC(C)CC

################### Outputs ########################
# Outputs tag ("CG" is default)
tag     3beads_alpha_a1b1c2

# Data file atom_style (molecular, full(default)) 
atom_style 	molecular

